letting n =  10
letting blocks =  [[1, 6], [1, 8], [2, 1], [2, 3], [2, 5], [2, 8], [3, 1], [3, 2], [3, 9], [4, 2], [4, 4], [4, 5], [5, 6], [5, 7], [5, 8], [6, 2], [6, 4], [6, 5], [7, 1], [7, 3], [7, 5], [7, 8], [8, 2], [8, 8], [8, 9], [9, 4], [10, 1], [10, 4], [10, 6], [10, 10]]
